c FILE: miles750.col
c Translated from Stanford GraphBase File: miles750.gb
c Stanford GraphBase ID: miles(128,0,0,0,750,127,0)
p edge 128 4226
e 4 3
e 5 3
e 5 4
e 6 2
e 7 2
e 8 2
e 8 7
e 9 3
e 9 4
e 9 5
e 10 2
e 10 6
e 10 8
e 11 3
e 12 1
e 12 5
e 13 2
e 13 6
e 13 10
e 14 7
e 14 8
e 15 4
e 15 9
e 16 3
e 16 5
e 16 12
e 17 11
e 18 3
e 18 4
e 18 9
e 18 15
e 19 7
e 19 8
e 19 14
e 20 2
e 20 7
e 20 8
e 20 10
e 21 3
e 21 4
e 21 5
e 21 9
e 21 15
e 21 18
e 22 2
e 22 10
e 22 20
e 23 2
e 23 6
e 23 13
e 24 2
e 24 10
e 24 13
e 24 20
e 24 22
e 25 2
e 25 7
e 25 10
e 25 20
e 25 22
e 25 24
e 26 3
e 26 4
e 26 9
e 26 15
e 26 18
e 26 21
e 27 1
e 27 7
e 27 8
e 27 14
e 27 19
e 28 2
e 28 7
e 28 8
e 28 10
e 28 14
e 28 19
e 28 20
e 28 24
e 28 25
e 28 27
e 29 4
e 29 5
e 29 9
e 29 15
e 29 18
e 29 21
e 29 26
e 30 2
e 30 10
e 30 13
e 30 20
e 30 22
e 30 24
e 30 25
e 30 28
e 31 1
e 31 12
e 31 27
e 32 1
e 32 3
e 32 5
e 32 12
e 32 16
e 32 31
e 33 1
e 33 5
e 33 12
e 33 16
e 33 31
e 33 32
e 35 3
e 35 5
e 35 12
e 35 16
e 35 32
e 35 33
e 35 34
e 36 2
e 36 10
e 36 20
e 36 22
e 36 24
e 36 25
e 36 28
e 36 30
e 37 1
e 37 5
e 37 12
e 37 16
e 37 31
e 37 32
e 37 33
e 38 2
e 38 10
e 38 20
e 38 22
e 38 24
e 38 25
e 38 28
e 38 30
e 38 36
e 39 7
e 39 8
e 39 14
e 39 19
e 39 27
e 39 28
e 39 33
e 40 4
e 40 9
e 40 15
e 40 18
e 40 21
e 40 26
e 40 29
e 41 2
e 41 6
e 41 10
e 41 13
e 41 20
e 41 22
e 41 24
e 41 25
e 41 28
e 41 30
e 41 36
e 41 38
e 42 3
e 42 9
e 42 11
e 42 17
e 42 21
e 43 7
e 43 8
e 43 14
e 43 19
e 43 20
e 43 27
e 43 28
e 43 39
e 44 1
e 44 12
e 44 31
e 44 37
e 45 2
e 45 7
e 45 8
e 45 10
e 45 13
e 45 14
e 45 20
e 45 22
e 45 24
e 45 25
e 45 27
e 45 28
e 45 30
e 45 36
e 45 38
e 45 41
e 45 43
e 46 2
e 46 7
e 46 10
e 46 20
e 46 22
e 46 24
e 46 25
e 46 28
e 46 30
e 46 36
e 46 38
e 46 41
e 46 45
e 47 1
e 47 12
e 47 16
e 47 31
e 47 32
e 47 33
e 47 37
e 47 44
e 48 3
e 48 4
e 48 5
e 48 9
e 48 12
e 48 15
e 48 16
e 48 21
e 48 29
e 48 32
e 48 33
e 48 35
e 48 37
e 49 3
e 49 4
e 49 9
e 49 11
e 49 15
e 49 17
e 49 18
e 49 21
e 49 26
e 49 29
e 49 40
e 49 42
e 50 3
e 50 11
e 50 17
e 50 42
e 50 49
e 51 19
e 51 34
e 51 39
e 52 2
e 52 7
e 52 8
e 52 10
e 52 14
e 52 19
e 52 20
e 52 22
e 52 24
e 52 25
e 52 27
e 52 28
e 52 30
e 52 36
e 52 38
e 52 39
e 52 41
e 52 43
e 52 45
e 52 46
e 53 2
e 53 10
e 53 20
e 53 22
e 53 24
e 53 25
e 53 28
e 53 30
e 53 36
e 53 38
e 53 41
e 53 45
e 53 46
e 53 52
e 54 4
e 54 9
e 54 15
e 54 18
e 54 21
e 54 26
e 54 29
e 54 40
e 54 48
e 54 49
e 55 1
e 55 12
e 55 23
e 55 27
e 55 31
e 55 44
e 55 47
e 56 6
e 56 13
e 56 23
e 57 1
e 57 23
e 57 27
e 57 31
e 57 44
e 57 47
e 57 55
e 58 2
e 58 7
e 58 8
e 58 10
e 58 20
e 58 22
e 58 24
e 58 25
e 58 28
e 58 30
e 58 36
e 58 38
e 58 41
e 58 45
e 58 46
e 58 52
e 58 53
e 59 3
e 59 4
e 59 9
e 59 11
e 59 17
e 59 18
e 59 21
e 59 26
e 59 40
e 59 42
e 59 49
e 59 50
e 60 2
e 60 6
e 60 13
e 60 23
e 60 56
e 61 2
e 61 10
e 61 20
e 61 22
e 61 24
e 61 25
e 61 28
e 61 30
e 61 36
e 61 38
e 61 41
e 61 45
e 61 46
e 61 52
e 61 53
e 61 58
e 62 2
e 62 7
e 62 8
e 62 10
e 62 14
e 62 19
e 62 20
e 62 24
e 62 25
e 62 27
e 62 28
e 62 30
e 62 38
e 62 39
e 62 43
e 62 45
e 62 46
e 62 52
e 62 53
e 62 58
e 63 3
e 63 5
e 63 11
e 63 17
e 63 35
e 63 42
e 63 49
e 63 50
e 63 59
e 64 1
e 64 2
e 64 6
e 64 8
e 64 13
e 64 23
e 64 27
e 64 28
e 64 31
e 64 43
e 64 44
e 64 52
e 64 55
e 64 56
e 64 57
e 64 60
e 64 62
e 65 8
e 65 14
e 65 16
e 65 19
e 65 33
e 65 34
e 65 35
e 65 39
e 65 43
e 65 51
e 66 2
e 66 7
e 66 8
e 66 10
e 66 14
e 66 19
e 66 20
e 66 22
e 66 24
e 66 25
e 66 27
e 66 28
e 66 30
e 66 36
e 66 38
e 66 39
e 66 41
e 66 43
e 66 45
e 66 46
e 66 52
e 66 53
e 66 58
e 66 61
e 66 62
e 67 1
e 67 6
e 67 13
e 67 23
e 67 27
e 67 31
e 67 44
e 67 55
e 67 56
e 67 57
e 67 60
e 67 64
e 68 2
e 68 7
e 68 8
e 68 10
e 68 14
e 68 19
e 68 20
e 68 24
e 68 25
e 68 27
e 68 28
e 68 30
e 68 38
e 68 39
e 68 41
e 68 43
e 68 45
e 68 46
e 68 52
e 68 53
e 68 58
e 68 61
e 68 62
e 68 64
e 68 66
e 68 67
e 69 2
e 69 7
e 69 8
e 69 10
e 69 14
e 69 20
e 69 22
e 69 24
e 69 25
e 69 27
e 69 28
e 69 30
e 69 36
e 69 38
e 69 41
e 69 43
e 69 45
e 69 46
e 69 52
e 69 53
e 69 58
e 69 61
e 69 62
e 69 66
e 69 68
e 70 1
e 70 2
e 70 6
e 70 13
e 70 23
e 70 27
e 70 44
e 70 55
e 70 56
e 70 57
e 70 60
e 70 64
e 70 67
e 70 68
e 71 2
e 71 6
e 71 10
e 71 13
e 71 23
e 71 24
e 71 41
e 71 45
e 71 56
e 71 60
e 71 64
e 71 67
e 71 68
e 71 70
e 72 1
e 72 31
e 72 37
e 72 44
e 72 47
e 72 55
e 72 57
e 72 67
e 73 7
e 73 8
e 73 14
e 73 19
e 73 27
e 73 28
e 73 39
e 73 43
e 73 45
e 73 51
e 73 52
e 73 62
e 73 65
e 73 66
e 73 68
e 73 69
e 74 1
e 74 8
e 74 12
e 74 16
e 74 19
e 74 27
e 74 28
e 74 31
e 74 32
e 74 33
e 74 35
e 74 39
e 74 43
e 74 51
e 74 62
e 74 65
e 74 68
e 74 73
e 75 2
e 75 6
e 75 8
e 75 10
e 75 13
e 75 20
e 75 23
e 75 24
e 75 25
e 75 27
e 75 28
e 75 30
e 75 36
e 75 38
e 75 41
e 75 45
e 75 46
e 75 52
e 75 53
e 75 58
e 75 60
e 75 61
e 75 62
e 75 64
e 75 66
e 75 68
e 75 69
e 75 70
e 75 71
e 76 1
e 76 2
e 76 6
e 76 7
e 76 8
e 76 10
e 76 13
e 76 14
e 76 19
e 76 20
e 76 23
e 76 27
e 76 28
e 76 30
e 76 39
e 76 43
e 76 45
e 76 52
e 76 55
e 76 57
e 76 62
e 76 64
e 76 66
e 76 67
e 76 68
e 76 69
e 76 70
e 76 71
e 76 73
e 76 74
e 76 75
e 77 4
e 77 5
e 77 9
e 77 15
e 77 18
e 77 21
e 77 26
e 77 29
e 77 40
e 77 48
e 77 49
e 77 54
e 78 7
e 78 8
e 78 14
e 78 19
e 78 27
e 78 28
e 78 33
e 78 39
e 78 43
e 78 51
e 78 52
e 78 62
e 78 65
e 78 68
e 78 73
e 78 74
e 78 76
e 79 1
e 79 8
e 79 12
e 79 16
e 79 19
e 79 27
e 79 28
e 79 31
e 79 32
e 79 33
e 79 39
e 79 43
e 79 44
e 79 52
e 79 55
e 79 57
e 79 62
e 79 64
e 79 65
e 79 67
e 79 68
e 79 73
e 79 74
e 79 76
e 79 78
e 80 1
e 80 12
e 80 16
e 80 27
e 80 31
e 80 32
e 80 33
e 80 37
e 80 39
e 80 43
e 80 44
e 80 47
e 80 55
e 80 57
e 80 64
e 80 67
e 80 72
e 80 74
e 80 76
e 80 78
e 80 79
e 81 3
e 81 5
e 81 9
e 81 11
e 81 17
e 81 21
e 81 42
e 81 49
e 81 50
e 81 59
e 81 63
e 82 2
e 82 10
e 82 20
e 82 22
e 82 24
e 82 25
e 82 28
e 82 30
e 82 36
e 82 38
e 82 41
e 82 45
e 82 46
e 82 52
e 82 53
e 82 58
e 82 61
e 82 62
e 82 66
e 82 68
e 82 69
e 82 75
e 83 2
e 83 7
e 83 8
e 83 10
e 83 14
e 83 20
e 83 22
e 83 24
e 83 25
e 83 27
e 83 28
e 83 30
e 83 36
e 83 38
e 83 41
e 83 43
e 83 45
e 83 46
e 83 52
e 83 53
e 83 58
e 83 61
e 83 62
e 83 66
e 83 68
e 83 69
e 83 73
e 83 75
e 83 76
e 83 82
e 84 2
e 84 6
e 84 10
e 84 13
e 84 20
e 84 23
e 84 24
e 84 25
e 84 30
e 84 38
e 84 41
e 84 45
e 84 52
e 84 53
e 84 56
e 84 58
e 84 60
e 84 61
e 84 64
e 84 66
e 84 68
e 84 69
e 84 70
e 84 71
e 84 75
e 84 82
e 85 3
e 85 9
e 85 11
e 85 17
e 85 42
e 85 49
e 85 50
e 85 59
e 85 63
e 85 81
e 86 2
e 86 10
e 86 20
e 86 22
e 86 24
e 86 25
e 86 28
e 86 30
e 86 36
e 86 38
e 86 41
e 86 45
e 86 46
e 86 52
e 86 53
e 86 58
e 86 61
e 86 66
e 86 69
e 86 75
e 86 82
e 86 83
e 86 84
e 87 3
e 87 5
e 87 9
e 87 12
e 87 16
e 87 32
e 87 33
e 87 35
e 87 37
e 87 48
e 88 1
e 88 2
e 88 7
e 88 8
e 88 10
e 88 14
e 88 19
e 88 20
e 88 24
e 88 27
e 88 28
e 88 30
e 88 39
e 88 43
e 88 45
e 88 52
e 88 53
e 88 55
e 88 57
e 88 58
e 88 62
e 88 64
e 88 66
e 88 67
e 88 68
e 88 69
e 88 70
e 88 71
e 88 73
e 88 74
e 88 75
e 88 76
e 88 78
e 88 79
e 88 80
e 88 83
e 89 2
e 89 6
e 89 13
e 89 23
e 89 56
e 89 57
e 89 60
e 89 64
e 89 67
e 89 70
e 89 71
e 89 75
e 89 76
e 89 84
e 90 1
e 90 8
e 90 12
e 90 16
e 90 19
e 90 27
e 90 31
e 90 32
e 90 33
e 90 39
e 90 43
e 90 44
e 90 55
e 90 57
e 90 62
e 90 64
e 90 65
e 90 67
e 90 68
e 90 73
e 90 74
e 90 76
e 90 78
e 90 79
e 90 80
e 90 88
e 91 2
e 91 7
e 91 8
e 91 10
e 91 14
e 91 19
e 91 20
e 91 24
e 91 25
e 91 27
e 91 28
e 91 30
e 91 38
e 91 39
e 91 43
e 91 45
e 91 46
e 91 52
e 91 53
e 91 58
e 91 62
e 91 64
e 91 66
e 91 68
e 91 69
e 91 73
e 91 74
e 91 75
e 91 76
e 91 78
e 91 79
e 91 83
e 91 88
e 91 90
e 92 2
e 92 7
e 92 8
e 92 10
e 92 14
e 92 19
e 92 20
e 92 24
e 92 25
e 92 27
e 92 28
e 92 30
e 92 38
e 92 39
e 92 41
e 92 43
e 92 45
e 92 46
e 92 52
e 92 53
e 92 58
e 92 61
e 92 62
e 92 64
e 92 66
e 92 68
e 92 69
e 92 70
e 92 71
e 92 73
e 92 75
e 92 76
e 92 78
e 92 79
e 92 82
e 92 83
e 92 84
e 92 86
e 92 88
e 92 90
e 92 91
e 93 2
e 93 6
e 93 10
e 93 13
e 93 20
e 93 22
e 93 24
e 93 25
e 93 28
e 93 30
e 93 36
e 93 38
e 93 41
e 93 45
e 93 46
e 93 52
e 93 53
e 93 58
e 93 60
e 93 61
e 93 62
e 93 66
e 93 68
e 93 69
e 93 71
e 93 75
e 93 76
e 93 82
e 93 83
e 93 84
e 93 86
e 93 88
e 93 89
e 93 91
e 93 92
e 94 2
e 94 7
e 94 8
e 94 10
e 94 14
e 94 20
e 94 22
e 94 24
e 94 25
e 94 28
e 94 30
e 94 36
e 94 38
e 94 41
e 94 43
e 94 45
e 94 46
e 94 52
e 94 53
e 94 58
e 94 61
e 94 62
e 94 66
e 94 68
e 94 69
e 94 75
e 94 76
e 94 82
e 94 83
e 94 84
e 94 86
e 94 88
e 94 91
e 94 92
e 94 93
e 95 6
e 95 13
e 95 23
e 95 56
e 95 60
e 95 70
e 95 71
e 95 84
e 95 89
e 96 2
e 96 6
e 96 10
e 96 13
e 96 20
e 96 23
e 96 24
e 96 28
e 96 30
e 96 38
e 96 41
e 96 45
e 96 52
e 96 53
e 96 56
e 96 60
e 96 64
e 96 66
e 96 67
e 96 68
e 96 69
e 96 70
e 96 71
e 96 75
e 96 76
e 96 84
e 96 88
e 96 89
e 96 92
e 96 93
e 96 95
e 97 8
e 97 14
e 97 16
e 97 19
e 97 27
e 97 33
e 97 34
e 97 35
e 97 39
e 97 43
e 97 51
e 97 62
e 97 65
e 97 73
e 97 74
e 97 78
e 97 79
e 97 80
e 97 90
e 97 91
e 98 1
e 98 12
e 98 27
e 98 31
e 98 32
e 98 37
e 98 44
e 98 47
e 98 55
e 98 57
e 98 64
e 98 67
e 98 70
e 98 72
e 98 74
e 98 79
e 98 80
e 98 90
e 99 2
e 99 7
e 99 8
e 99 10
e 99 14
e 99 19
e 99 20
e 99 24
e 99 25
e 99 27
e 99 28
e 99 30
e 99 38
e 99 39
e 99 41
e 99 43
e 99 45
e 99 46
e 99 52
e 99 53
e 99 58
e 99 62
e 99 66
e 99 68
e 99 69
e 99 73
e 99 75
e 99 76
e 99 78
e 99 79
e 99 82
e 99 83
e 99 88
e 99 91
e 99 92
e 99 93
e 99 94
e 100 7
e 100 8
e 100 14
e 100 19
e 100 27
e 100 28
e 100 39
e 100 43
e 100 45
e 100 51
e 100 52
e 100 62
e 100 64
e 100 65
e 100 66
e 100 68
e 100 69
e 100 73
e 100 74
e 100 76
e 100 78
e 100 79
e 100 80
e 100 83
e 100 88
e 100 90
e 100 91
e 100 92
e 100 97
e 100 99
e 101 7
e 101 8
e 101 14
e 101 19
e 101 27
e 101 28
e 101 39
e 101 43
e 101 51
e 101 52
e 101 62
e 101 65
e 101 66
e 101 68
e 101 73
e 101 74
e 101 76
e 101 78
e 101 79
e 101 88
e 101 90
e 101 91
e 101 92
e 101 97
e 101 99
e 101 100
e 102 1
e 102 8
e 102 12
e 102 16
e 102 27
e 102 31
e 102 32
e 102 33
e 102 37
e 102 39
e 102 43
e 102 44
e 102 47
e 102 55
e 102 57
e 102 65
e 102 68
e 102 72
e 102 74
e 102 76
e 102 78
e 102 79
e 102 80
e 102 88
e 102 90
e 102 97
e 102 98
e 102 100
e 103 1
e 103 12
e 103 27
e 103 31
e 103 37
e 103 44
e 103 47
e 103 55
e 103 57
e 103 64
e 103 67
e 103 70
e 103 72
e 103 79
e 103 80
e 103 90
e 103 98
e 103 102
e 104 3
e 104 4
e 104 5
e 104 9
e 104 11
e 104 15
e 104 18
e 104 21
e 104 26
e 104 29
e 104 40
e 104 42
e 104 49
e 104 50
e 104 54
e 104 59
e 104 63
e 104 77
e 104 81
e 104 85
e 105 1
e 105 8
e 105 16
e 105 19
e 105 27
e 105 33
e 105 35
e 105 39
e 105 43
e 105 51
e 105 62
e 105 65
e 105 73
e 105 74
e 105 76
e 105 78
e 105 79
e 105 80
e 105 88
e 105 90
e 105 91
e 105 97
e 105 100
e 105 101
e 105 102
e 106 6
e 106 13
e 106 23
e 106 56
e 106 60
e 106 70
e 106 71
e 106 84
e 106 89
e 106 95
e 106 96
e 107 2
e 107 6
e 107 7
e 107 8
e 107 10
e 107 13
e 107 20
e 107 23
e 107 24
e 107 25
e 107 27
e 107 28
e 107 30
e 107 38
e 107 41
e 107 43
e 107 45
e 107 46
e 107 52
e 107 53
e 107 58
e 107 60
e 107 61
e 107 62
e 107 64
e 107 66
e 107 68
e 107 69
e 107 70
e 107 71
e 107 75
e 107 76
e 107 83
e 107 84
e 107 88
e 107 89
e 107 91
e 107 92
e 107 93
e 107 94
e 107 96
e 107 99
e 107 100
e 108 1
e 108 8
e 108 12
e 108 19
e 108 27
e 108 28
e 108 31
e 108 33
e 108 39
e 108 43
e 108 44
e 108 52
e 108 55
e 108 57
e 108 62
e 108 64
e 108 67
e 108 68
e 108 70
e 108 72
e 108 73
e 108 74
e 108 76
e 108 78
e 108 79
e 108 80
e 108 88
e 108 90
e 108 91
e 108 92
e 108 97
e 108 98
e 108 100
e 108 102
e 108 103
e 108 105
e 109 1
e 109 12
e 109 27
e 109 31
e 109 32
e 109 33
e 109 37
e 109 39
e 109 43
e 109 44
e 109 47
e 109 55
e 109 57
e 109 64
e 109 67
e 109 68
e 109 70
e 109 72
e 109 74
e 109 76
e 109 78
e 109 79
e 109 80
e 109 88
e 109 90
e 109 97
e 109 98
e 109 102
e 109 103
e 109 105
e 109 108
e 110 1
e 110 7
e 110 8
e 110 12
e 110 16
e 110 19
e 110 27
e 110 28
e 110 31
e 110 33
e 110 39
e 110 43
e 110 44
e 110 52
e 110 55
e 110 57
e 110 62
e 110 64
e 110 66
e 110 67
e 110 68
e 110 70
e 110 73
e 110 74
e 110 76
e 110 78
e 110 79
e 110 80
e 110 88
e 110 90
e 110 91
e 110 92
e 110 97
e 110 98
e 110 99
e 110 100
e 110 101
e 110 102
e 110 103
e 110 105
e 110 107
e 110 108
e 110 109
e 111 2
e 111 6
e 111 10
e 111 13
e 111 20
e 111 23
e 111 24
e 111 25
e 111 28
e 111 30
e 111 36
e 111 38
e 111 41
e 111 45
e 111 46
e 111 52
e 111 53
e 111 56
e 111 58
e 111 60
e 111 61
e 111 66
e 111 68
e 111 69
e 111 70
e 111 71
e 111 75
e 111 76
e 111 82
e 111 83
e 111 84
e 111 86
e 111 89
e 111 92
e 111 93
e 111 94
e 111 96
e 111 107
e 112 12
e 112 15
e 112 29
e 112 32
e 112 37
e 112 47
e 112 48
e 112 54
e 112 77
e 113 2
e 113 6
e 113 7
e 113 8
e 113 10
e 113 13
e 113 20
e 113 22
e 113 24
e 113 25
e 113 27
e 113 28
e 113 30
e 113 36
e 113 38
e 113 41
e 113 43
e 113 45
e 113 46
e 113 52
e 113 53
e 113 58
e 113 61
e 113 62
e 113 66
e 113 68
e 113 69
e 113 71
e 113 75
e 113 76
e 113 82
e 113 83
e 113 84
e 113 86
e 113 88
e 113 91
e 113 92
e 113 93
e 113 94
e 113 96
e 113 99
e 113 107
e 113 111
e 114 1
e 114 7
e 114 8
e 114 14
e 114 16
e 114 19
e 114 27
e 114 28
e 114 33
e 114 39
e 114 43
e 114 51
e 114 52
e 114 62
e 114 64
e 114 65
e 114 66
e 114 68
e 114 73
e 114 74
e 114 76
e 114 78
e 114 79
e 114 80
e 114 88
e 114 90
e 114 91
e 114 92
e 114 97
e 114 99
e 114 100
e 114 101
e 114 102
e 114 105
e 114 108
e 114 109
e 114 110
e 115 2
e 115 7
e 115 8
e 115 10
e 115 14
e 115 19
e 115 20
e 115 22
e 115 24
e 115 25
e 115 27
e 115 28
e 115 30
e 115 36
e 115 38
e 115 41
e 115 43
e 115 45
e 115 46
e 115 52
e 115 53
e 115 58
e 115 61
e 115 62
e 115 66
e 115 68
e 115 69
e 115 73
e 115 75
e 115 76
e 115 82
e 115 83
e 115 84
e 115 86
e 115 88
e 115 91
e 115 92
e 115 93
e 115 94
e 115 96
e 115 99
e 115 100
e 115 101
e 115 107
e 115 111
e 115 113
e 115 114
e 116 2
e 116 10
e 116 20
e 116 22
e 116 24
e 116 25
e 116 28
e 116 30
e 116 36
e 116 38
e 116 41
e 116 45
e 116 46
e 116 52
e 116 53
e 116 58
e 116 61
e 116 62
e 116 66
e 116 68
e 116 69
e 116 75
e 116 82
e 116 83
e 116 84
e 116 86
e 116 88
e 116 91
e 116 92
e 116 93
e 116 94
e 116 96
e 116 99
e 116 107
e 116 111
e 116 113
e 116 115
e 117 1
e 117 8
e 117 12
e 117 16
e 117 19
e 117 27
e 117 31
e 117 32
e 117 33
e 117 35
e 117 39
e 117 43
e 117 51
e 117 62
e 117 65
e 117 73
e 117 74
e 117 76
e 117 78
e 117 79
e 117 80
e 117 88
e 117 90
e 117 91
e 117 97
e 117 100
e 117 101
e 117 102
e 117 105
e 117 108
e 117 109
e 117 110
e 117 114
e 118 2
e 118 10
e 118 20
e 118 22
e 118 24
e 118 25
e 118 28
e 118 30
e 118 36
e 118 38
e 118 41
e 118 45
e 118 46
e 118 52
e 118 53
e 118 58
e 118 61
e 118 66
e 118 69
e 118 75
e 118 82
e 118 83
e 118 86
e 118 92
e 118 93
e 118 94
e 118 99
e 118 111
e 118 113
e 118 115
e 118 116
e 119 1
e 119 31
e 119 44
e 119 47
e 119 55
e 119 57
e 119 64
e 119 67
e 119 72
e 119 80
e 119 98
e 119 103
e 119 109
e 120 1
e 120 12
e 120 31
e 120 32
e 120 33
e 120 37
e 120 44
e 120 47
e 120 55
e 120 57
e 120 67
e 120 72
e 120 80
e 120 90
e 120 98
e 120 102
e 120 103
e 120 108
e 120 109
e 120 112
e 120 119
e 121 16
e 121 33
e 121 34
e 121 35
e 121 39
e 121 51
e 121 65
e 121 74
e 121 78
e 121 97
e 121 105
e 121 117
e 122 1
e 122 2
e 122 6
e 122 8
e 122 13
e 122 23
e 122 27
e 122 31
e 122 43
e 122 44
e 122 55
e 122 56
e 122 57
e 122 60
e 122 62
e 122 64
e 122 67
e 122 68
e 122 70
e 122 71
e 122 75
e 122 76
e 122 84
e 122 88
e 122 89
e 122 91
e 122 92
e 122 95
e 122 96
e 122 98
e 122 103
e 122 107
e 122 108
e 122 109
e 122 110
e 122 111
e 122 119
e 123 2
e 123 7
e 123 8
e 123 10
e 123 13
e 123 14
e 123 19
e 123 20
e 123 22
e 123 24
e 123 25
e 123 27
e 123 28
e 123 30
e 123 36
e 123 38
e 123 41
e 123 43
e 123 45
e 123 46
e 123 52
e 123 53
e 123 58
e 123 61
e 123 62
e 123 64
e 123 66
e 123 68
e 123 69
e 123 71
e 123 73
e 123 75
e 123 76
e 123 82
e 123 83
e 123 84
e 123 86
e 123 88
e 123 91
e 123 92
e 123 93
e 123 94
e 123 96
e 123 99
e 123 100
e 123 107
e 123 110
e 123 111
e 123 113
e 123 114
e 123 115
e 123 116
e 123 118
e 124 3
e 124 4
e 124 9
e 124 15
e 124 18
e 124 21
e 124 26
e 124 29
e 124 40
e 124 49
e 124 54
e 124 59
e 124 77
e 124 104
e 125 7
e 125 8
e 125 14
e 125 16
e 125 19
e 125 27
e 125 28
e 125 33
e 125 34
e 125 39
e 125 43
e 125 51
e 125 62
e 125 65
e 125 68
e 125 73
e 125 74
e 125 76
e 125 78
e 125 79
e 125 80
e 125 88
e 125 90
e 125 91
e 125 97
e 125 100
e 125 101
e 125 102
e 125 105
e 125 108
e 125 110
e 125 114
e 125 117
e 125 121
e 126 2
e 126 7
e 126 8
e 126 10
e 126 14
e 126 19
e 126 20
e 126 22
e 126 24
e 126 25
e 126 27
e 126 28
e 126 30
e 126 36
e 126 38
e 126 41
e 126 43
e 126 45
e 126 46
e 126 52
e 126 53
e 126 58
e 126 61
e 126 62
e 126 66
e 126 68
e 126 69
e 126 71
e 126 73
e 126 75
e 126 76
e 126 82
e 126 83
e 126 84
e 126 86
e 126 88
e 126 91
e 126 92
e 126 93
e 126 94
e 126 96
e 126 99
e 126 100
e 126 107
e 126 110
e 126 111
e 126 113
e 126 114
e 126 115
e 126 116
e 126 118
e 126 123
e 127 2
e 127 6
e 127 10
e 127 13
e 127 20
e 127 23
e 127 24
e 127 25
e 127 27
e 127 28
e 127 30
e 127 36
e 127 38
e 127 41
e 127 45
e 127 46
e 127 52
e 127 53
e 127 56
e 127 58
e 127 60
e 127 61
e 127 62
e 127 64
e 127 66
e 127 68
e 127 69
e 127 70
e 127 71
e 127 75
e 127 76
e 127 82
e 127 83
e 127 84
e 127 86
e 127 88
e 127 89
e 127 91
e 127 92
e 127 93
e 127 94
e 127 95
e 127 96
e 127 99
e 127 107
e 127 111
e 127 113
e 127 115
e 127 116
e 127 122
e 127 123
e 127 126
e 128 1
e 128 2
e 128 7
e 128 8
e 128 14
e 128 19
e 128 20
e 128 27
e 128 28
e 128 39
e 128 43
e 128 45
e 128 52
e 128 55
e 128 57
e 128 62
e 128 64
e 128 66
e 128 67
e 128 68
e 128 69
e 128 70
e 128 73
e 128 74
e 128 75
e 128 76
e 128 78
e 128 79
e 128 80
e 128 83
e 128 88
e 128 90
e 128 91
e 128 92
e 128 94
e 128 97
e 128 98
e 128 99
e 128 100
e 128 101
e 128 102
e 128 105
e 128 107
e 128 108
e 128 109
e 128 110
e 128 113
e 128 114
e 128 115
e 128 117
e 128 122
e 128 123
e 128 125
e 128 126
